NAME :  IRP
COMMENT : 
TYPE :  CVRP
DIMENSION : 	15
EDGE_WEIGHT_TYPE : 	EUC_2D
CAPACITY : 	779
NODE_COORD_SECTION
1	180	493
2	326	40
3	74	54
4	50	162
5	212	224
6	193	489
7	82	56
8	458	481
9	268	209
10	171	133
11	33	291
12	219	284
13	174	307
14	22	382
15	203	396
DEMAND_SECTION
1	0
2	56
3	140
4	78
5	26
6	74
7	288
8	63
9	240
10	132
11	156
12	213
13	81
14	108
15	183
DEPOT_SECTION
	1
	-1
EOF
